(set-info :origin "benchmarks generated by liquid types http://goto.ucsd.edu/~rjhala/liquid/")
(set-logic HORN)
(declare-fun k_17
             (Int
              Int
              Int
              Int
              Int
              Int
              (Array Int Int)
              (Array Int Int)
              (Array Int Int))
             Bool)
(declare-fun k_13
             (Int Int Int (Array Int Int) (Array Int Int) (Array Int Int))
             Bool)
(declare-fun k_15
             (Int
              Int
              Int
              Int
              Int
              Int
              (Array Int Int)
              (Array Int Int)
              (Array Int Int))
             Bool)
(declare-fun k_16
             (Int
              Int
              Int
              Int
              Int
              Int
              (Array Int Int)
              (Array Int Int)
              (Array Int Int))
             Bool)
(assert (forall ((VV Int)
         (EREAD Int)
         (lqn_0 Int)
         (C9_Ix_8 Int)
         (C9_Ix_4 Int)
         (C9_Ix_0 Int)
         (lqn_2 Int)
         (EWRITE Int)
         (lqn_1 Int)
         (BLOCK_BEGIN (Array Int Int))
         (BLOCK_END (Array Int Int))
         (UNCHECKED (Array Int Int)))
  (=> (and (= VV VV)
           (= EWRITE EWRITE)
           (= EREAD EREAD)
           (= C9_Ix_8 C9_Ix_8)
           (= C9_Ix_4 C9_Ix_4)
           (= C9_Ix_0 C9_Ix_0)
           (= VV C9_Ix_8)
           (= lqn_2 0)
           (= lqn_1 0)
           (= lqn_0 0)
           (= C9_Ix_8 2)
           (= C9_Ix_4 1)
           (= C9_Ix_0 0)
           true)
      (k_17 C9_Ix_0
            C9_Ix_4
            C9_Ix_8
            EREAD
            EWRITE
            VV
            BLOCK_BEGIN
            BLOCK_END
            UNCHECKED))))
(assert (forall ((VV Int)
         (EREAD Int)
         (lqn_0 Int)
         (C9_Ix_8 Int)
         (C9_Ix_4 Int)
         (C9_Ix_0 Int)
         (lqn_2 Int)
         (EWRITE Int)
         (lqn_1 Int)
         (BLOCK_BEGIN (Array Int Int))
         (BLOCK_END (Array Int Int))
         (UNCHECKED (Array Int Int)))
  (=> (and (= VV VV)
           (= EWRITE EWRITE)
           (= EREAD EREAD)
           (= C9_Ix_8 C9_Ix_8)
           (= C9_Ix_4 C9_Ix_4)
           (= C9_Ix_0 C9_Ix_0)
           (= VV C9_Ix_4)
           (= lqn_2 0)
           (= lqn_1 0)
           (= lqn_0 0)
           (= C9_Ix_8 2)
           (= C9_Ix_4 1)
           (= C9_Ix_0 0)
           true)
      (k_16 C9_Ix_0
            C9_Ix_4
            C9_Ix_8
            EREAD
            EWRITE
            VV
            BLOCK_BEGIN
            BLOCK_END
            UNCHECKED))))
(assert (forall ((VV Int)
         (EREAD Int)
         (lqn_0 Int)
         (C9_Ix_8 Int)
         (C9_Ix_4 Int)
         (C9_Ix_0 Int)
         (lqn_2 Int)
         (EWRITE Int)
         (lqn_1 Int)
         (BLOCK_BEGIN (Array Int Int))
         (BLOCK_END (Array Int Int))
         (UNCHECKED (Array Int Int)))
  (=> (and (= VV VV)
           (= EWRITE EWRITE)
           (= EREAD EREAD)
           (= C9_Ix_8 C9_Ix_8)
           (= C9_Ix_4 C9_Ix_4)
           (= C9_Ix_0 C9_Ix_0)
           (= VV C9_Ix_0)
           (= lqn_2 0)
           (= lqn_1 0)
           (= lqn_0 0)
           (= C9_Ix_8 2)
           (= C9_Ix_4 1)
           (= C9_Ix_0 0)
           true)
      (k_15 C9_Ix_0
            C9_Ix_4
            C9_Ix_8
            EREAD
            EWRITE
            VV
            BLOCK_BEGIN
            BLOCK_END
            UNCHECKED))))
(assert (forall ((VV Int)
         (EREAD Int)
         (EWRITE Int)
         (BLOCK_BEGIN (Array Int Int))
         (BLOCK_END (Array Int Int))
         (UNCHECKED (Array Int Int)))
  (=> (and (= VV VV)
           (= EWRITE EWRITE)
           (= EREAD EREAD)
           (> VV 0)
           (= (select BLOCK_BEGIN VV) VV)
           (= (select BLOCK_END VV) (+ VV 12))
           true)
      (k_13 EREAD EWRITE VV BLOCK_BEGIN BLOCK_END UNCHECKED))))
(assert (forall ((__cil_tmp13_main Int)
         (t__csolve_heapify__ Int)
         (VV Int)
         (EWRITE Int)
         (EREAD Int)
         (BLOCK_BEGIN (Array Int Int))
         (BLOCK_END (Array Int Int))
         (UNCHECKED (Array Int Int)))
  (let ((a!1 (or (= (select UNCHECKED VV) 1)
                 (and (<= (select BLOCK_BEGIN VV) VV)
                      (< VV (select BLOCK_END VV))
                      true)
                 false)))
    (=> (and (not a!1)
             (k_13 EREAD
                   EWRITE
                   __cil_tmp13_main
                   BLOCK_BEGIN
                   BLOCK_END
                   UNCHECKED)
             (k_13 EREAD
                   EWRITE
                   t__csolve_heapify__
                   BLOCK_BEGIN
                   BLOCK_END
                   UNCHECKED)
             (< VV (+ __cil_tmp13_main 12))
             (<= __cil_tmp13_main VV)
             (= (select UNCHECKED VV) (select UNCHECKED __cil_tmp13_main))
             (= (select BLOCK_END VV) (select BLOCK_END __cil_tmp13_main))
             (= (select BLOCK_BEGIN VV) (select BLOCK_BEGIN __cil_tmp13_main))
             true)
        false))))
(assert (forall ((VV Int)
         (EREAD Int)
         (__cil_tmp13_main Int)
         (lqn_4 Int)
         (__cil_tmp2_main Int)
         (__cil_tmp11_main Int)
         (__cil_tmp1_main Int)
         (lqn_3 Int)
         (t__csolve_heapify__ Int)
         (lqn_5 Int)
         (EWRITE Int)
         (BLOCK_BEGIN (Array Int Int))
         (BLOCK_END (Array Int Int))
         (UNCHECKED (Array Int Int)))
  (let ((a!1 (and (not (not (= VV 0)))
                  (k_13 EREAD
                        EWRITE
                        __cil_tmp13_main
                        BLOCK_BEGIN
                        BLOCK_END
                        UNCHECKED)
                  (k_15 lqn_3
                        lqn_4
                        lqn_5
                        EREAD
                        EWRITE
                        lqn_3
                        BLOCK_BEGIN
                        BLOCK_END
                        UNCHECKED)
                  (k_16 lqn_3
                        lqn_4
                        lqn_5
                        EREAD
                        EWRITE
                        lqn_4
                        BLOCK_BEGIN
                        BLOCK_END
                        UNCHECKED)
                  (k_17 lqn_3
                        lqn_4
                        lqn_5
                        EREAD
                        EWRITE
                        lqn_5
                        BLOCK_BEGIN
                        BLOCK_END
                        UNCHECKED)
                  (k_13 EREAD
                        EWRITE
                        t__csolve_heapify__
                        BLOCK_BEGIN
                        BLOCK_END
                        UNCHECKED)
                  (= __cil_tmp11_main lqn_3)
                  (= __cil_tmp1_main lqn_3)
                  (= __cil_tmp2_main (ite (= __cil_tmp1_main 0) 1 0))
                  (= VV __cil_tmp2_main)
                  true)))
    (=> a!1 false))))
(assert (forall ((EREAD Int)
         (__cil_tmp13_main Int)
         (lqn_4 Int)
         (__cil_tmp2_main Int)
         (__cil_tmp11_main Int)
         (__cil_tmp1_main Int)
         (lqn_3 Int)
         (t__csolve_heapify__ Int)
         (lqn_5 Int)
         (EWRITE Int)
         (BLOCK_BEGIN (Array Int Int))
         (BLOCK_END (Array Int Int))
         (UNCHECKED (Array Int Int)))
  (let ((a!1 (and (not (<= 0 4))
                  (k_13 EREAD
                        EWRITE
                        __cil_tmp13_main
                        BLOCK_BEGIN
                        BLOCK_END
                        UNCHECKED)
                  (k_15 lqn_3
                        lqn_4
                        lqn_5
                        EREAD
                        EWRITE
                        lqn_3
                        BLOCK_BEGIN
                        BLOCK_END
                        UNCHECKED)
                  (k_16 lqn_3
                        lqn_4
                        lqn_5
                        EREAD
                        EWRITE
                        lqn_4
                        BLOCK_BEGIN
                        BLOCK_END
                        UNCHECKED)
                  (k_17 lqn_3
                        lqn_4
                        lqn_5
                        EREAD
                        EWRITE
                        lqn_5
                        BLOCK_BEGIN
                        BLOCK_END
                        UNCHECKED)
                  (k_13 EREAD
                        EWRITE
                        t__csolve_heapify__
                        BLOCK_BEGIN
                        BLOCK_END
                        UNCHECKED)
                  (= __cil_tmp11_main lqn_3)
                  (= __cil_tmp1_main lqn_3)
                  (= __cil_tmp2_main (ite (= __cil_tmp1_main 0) 1 0))
                  true)))
    (=> a!1 false))))
(assert (forall ((__cil_tmp3_main Int)
         (VV Int)
         (EREAD Int)
         (__cil_tmp13_main Int)
         (lqn_4 Int)
         (__cil_tmp2_main Int)
         (__cil_tmp11_main Int)
         (__cil_tmp1_main Int)
         (lqn_3 Int)
         (t__csolve_heapify__ Int)
         (lqn_5 Int)
         (EWRITE Int)
         (BLOCK_BEGIN (Array Int Int))
         (BLOCK_END (Array Int Int))
         (UNCHECKED (Array Int Int)))
  (let ((a!1 (or (= (select UNCHECKED VV) 1)
                 (and (<= (select BLOCK_BEGIN VV) VV)
                      (< VV (select BLOCK_END VV))
                      true)
                 false)))
  (let ((a!2 (and (not a!1)
                  (k_13 EREAD
                        EWRITE
                        __cil_tmp13_main
                        BLOCK_BEGIN
                        BLOCK_END
                        UNCHECKED)
                  (k_15 lqn_3
                        lqn_4
                        lqn_5
                        EREAD
                        EWRITE
                        lqn_3
                        BLOCK_BEGIN
                        BLOCK_END
                        UNCHECKED)
                  (k_16 lqn_3
                        lqn_4
                        lqn_5
                        EREAD
                        EWRITE
                        lqn_4
                        BLOCK_BEGIN
                        BLOCK_END
                        UNCHECKED)
                  (k_17 lqn_3
                        lqn_4
                        lqn_5
                        EREAD
                        EWRITE
                        lqn_5
                        BLOCK_BEGIN
                        BLOCK_END
                        UNCHECKED)
                  (k_13 EREAD
                        EWRITE
                        t__csolve_heapify__
                        BLOCK_BEGIN
                        BLOCK_END
                        UNCHECKED)
                  (= __cil_tmp11_main lqn_3)
                  (= __cil_tmp1_main lqn_3)
                  (= __cil_tmp2_main (ite (= __cil_tmp1_main 0) 1 0))
                  (= (select BLOCK_END __cil_tmp3_main)
                     (select BLOCK_END __cil_tmp13_main))
                  (= (select BLOCK_BEGIN __cil_tmp3_main)
                     (select BLOCK_BEGIN __cil_tmp13_main))
                  (= (select UNCHECKED __cil_tmp3_main)
                     (select UNCHECKED __cil_tmp13_main))
                  (= __cil_tmp3_main (+ __cil_tmp13_main 4))
                  (<= __cil_tmp13_main __cil_tmp3_main)
                  (< VV (+ __cil_tmp3_main 1))
                  (<= __cil_tmp3_main VV)
                  (= (select UNCHECKED VV) (select UNCHECKED __cil_tmp3_main))
                  (= (select BLOCK_END VV) (select BLOCK_END __cil_tmp3_main))
                  (= (select BLOCK_BEGIN VV)
                     (select BLOCK_BEGIN __cil_tmp3_main))
                  true)))
    (=> a!2 false)))))
(assert (forall ((__cil_tmp3_main Int)
         (__cil_tmp6_main Int)
         (VV Int)
         (lqn_6 Int)
         (EREAD Int)
         (__cil_tmp13_main Int)
         (lqn_4 Int)
         (__cil_tmp2_main Int)
         (__cil_tmp11_main Int)
         (lqn_8 Int)
         (__cil_tmp1_main Int)
         (lqn_3 Int)
         (__cil_tmp4_main Int)
         (lqn_7 Int)
         (t__csolve_heapify__ Int)
         (lqn_5 Int)
         (EWRITE Int)
         (__cil_tmp5_main Int)
         (BLOCK_BEGIN (Array Int Int))
         (BLOCK_END (Array Int Int))
         (UNCHECKED (Array Int Int)))
  (let ((a!1 (and (not (not (= VV 0)))
                  (k_13 EREAD
                        EWRITE
                        __cil_tmp13_main
                        BLOCK_BEGIN
                        BLOCK_END
                        UNCHECKED)
                  (k_15 lqn_3
                        lqn_4
                        lqn_5
                        EREAD
                        EWRITE
                        lqn_3
                        BLOCK_BEGIN
                        BLOCK_END
                        UNCHECKED)
                  (k_16 lqn_3
                        lqn_4
                        lqn_5
                        EREAD
                        EWRITE
                        lqn_4
                        BLOCK_BEGIN
                        BLOCK_END
                        UNCHECKED)
                  (k_17 lqn_3
                        lqn_4
                        lqn_5
                        EREAD
                        EWRITE
                        lqn_5
                        BLOCK_BEGIN
                        BLOCK_END
                        UNCHECKED)
                  (k_15 lqn_6
                        lqn_7
                        lqn_8
                        EREAD
                        EWRITE
                        lqn_6
                        BLOCK_BEGIN
                        BLOCK_END
                        UNCHECKED)
                  (k_16 lqn_6
                        lqn_7
                        lqn_8
                        EREAD
                        EWRITE
                        lqn_7
                        BLOCK_BEGIN
                        BLOCK_END
                        UNCHECKED)
                  (k_17 lqn_6
                        lqn_7
                        lqn_8
                        EREAD
                        EWRITE
                        lqn_8
                        BLOCK_BEGIN
                        BLOCK_END
                        UNCHECKED)
                  (k_13 EREAD
                        EWRITE
                        t__csolve_heapify__
                        BLOCK_BEGIN
                        BLOCK_END
                        UNCHECKED)
                  (= __cil_tmp11_main lqn_3)
                  (= __cil_tmp1_main lqn_3)
                  (= __cil_tmp2_main (ite (= __cil_tmp1_main 0) 1 0))
                  (= (select BLOCK_END __cil_tmp3_main)
                     (select BLOCK_END __cil_tmp13_main))
                  (= (select BLOCK_BEGIN __cil_tmp3_main)
                     (select BLOCK_BEGIN __cil_tmp13_main))
                  (= (select UNCHECKED __cil_tmp3_main)
                     (select UNCHECKED __cil_tmp13_main))
                  (= __cil_tmp3_main (+ __cil_tmp13_main 4))
                  (<= __cil_tmp13_main __cil_tmp3_main)
                  (= __cil_tmp4_main lqn_7)
                  (= __cil_tmp5_main __cil_tmp4_main)
                  (= __cil_tmp6_main (ite (= __cil_tmp5_main 1) 1 0))
                  (= VV __cil_tmp6_main)
                  true)))
    (=> a!1 false))))
(assert (forall ((__cil_tmp3_main Int)
         (__cil_tmp6_main Int)
         (__cil_tmp4_main Int)
         (lqn_6 Int)
         (EREAD Int)
         (__cil_tmp13_main Int)
         (lqn_4 Int)
         (__cil_tmp2_main Int)
         (__cil_tmp11_main Int)
         (lqn_8 Int)
         (__cil_tmp1_main Int)
         (lqn_3 Int)
         (lqn_7 Int)
         (t__csolve_heapify__ Int)
         (lqn_5 Int)
         (EWRITE Int)
         (__cil_tmp5_main Int)
         (BLOCK_BEGIN (Array Int Int))
         (BLOCK_END (Array Int Int))
         (UNCHECKED (Array Int Int)))
  (let ((a!1 (and (not (<= 0 8))
                  (k_13 EREAD
                        EWRITE
                        __cil_tmp13_main
                        BLOCK_BEGIN
                        BLOCK_END
                        UNCHECKED)
                  (k_15 lqn_3
                        lqn_4
                        lqn_5
                        EREAD
                        EWRITE
                        lqn_3
                        BLOCK_BEGIN
                        BLOCK_END
                        UNCHECKED)
                  (k_16 lqn_3
                        lqn_4
                        lqn_5
                        EREAD
                        EWRITE
                        lqn_4
                        BLOCK_BEGIN
                        BLOCK_END
                        UNCHECKED)
                  (k_17 lqn_3
                        lqn_4
                        lqn_5
                        EREAD
                        EWRITE
                        lqn_5
                        BLOCK_BEGIN
                        BLOCK_END
                        UNCHECKED)
                  (k_15 lqn_6
                        lqn_7
                        lqn_8
                        EREAD
                        EWRITE
                        lqn_6
                        BLOCK_BEGIN
                        BLOCK_END
                        UNCHECKED)
                  (k_16 lqn_6
                        lqn_7
                        lqn_8
                        EREAD
                        EWRITE
                        lqn_7
                        BLOCK_BEGIN
                        BLOCK_END
                        UNCHECKED)
                  (k_17 lqn_6
                        lqn_7
                        lqn_8
                        EREAD
                        EWRITE
                        lqn_8
                        BLOCK_BEGIN
                        BLOCK_END
                        UNCHECKED)
                  (k_13 EREAD
                        EWRITE
                        t__csolve_heapify__
                        BLOCK_BEGIN
                        BLOCK_END
                        UNCHECKED)
                  (= __cil_tmp11_main lqn_3)
                  (= __cil_tmp1_main lqn_3)
                  (= __cil_tmp2_main (ite (= __cil_tmp1_main 0) 1 0))
                  (= (select BLOCK_END __cil_tmp3_main)
                     (select BLOCK_END __cil_tmp13_main))
                  (= (select BLOCK_BEGIN __cil_tmp3_main)
                     (select BLOCK_BEGIN __cil_tmp13_main))
                  (= (select UNCHECKED __cil_tmp3_main)
                     (select UNCHECKED __cil_tmp13_main))
                  (= __cil_tmp3_main (+ __cil_tmp13_main 4))
                  (<= __cil_tmp13_main __cil_tmp3_main)
                  (= __cil_tmp4_main lqn_7)
                  (= __cil_tmp5_main __cil_tmp4_main)
                  (= __cil_tmp6_main (ite (= __cil_tmp5_main 1) 1 0))
                  true)))
    (=> a!1 false))))
(assert (forall ((__cil_tmp3_main Int)
         (__cil_tmp6_main Int)
         (VV Int)
         (lqn_6 Int)
         (EREAD Int)
         (__cil_tmp13_main Int)
         (lqn_4 Int)
         (__cil_tmp2_main Int)
         (__cil_tmp11_main Int)
         (lqn_8 Int)
         (__cil_tmp7_main Int)
         (__cil_tmp1_main Int)
         (lqn_3 Int)
         (__cil_tmp4_main Int)
         (lqn_7 Int)
         (t__csolve_heapify__ Int)
         (lqn_5 Int)
         (EWRITE Int)
         (__cil_tmp5_main Int)
         (BLOCK_BEGIN (Array Int Int))
         (BLOCK_END (Array Int Int))
         (UNCHECKED (Array Int Int)))
  (let ((a!1 (or (= (select UNCHECKED VV) 1)
                 (and (<= (select BLOCK_BEGIN VV) VV)
                      (< VV (select BLOCK_END VV))
                      true)
                 false)))
  (let ((a!2 (and (not a!1)
                  (k_13 EREAD
                        EWRITE
                        __cil_tmp13_main
                        BLOCK_BEGIN
                        BLOCK_END
                        UNCHECKED)
                  (k_15 lqn_3
                        lqn_4
                        lqn_5
                        EREAD
                        EWRITE
                        lqn_3
                        BLOCK_BEGIN
                        BLOCK_END
                        UNCHECKED)
                  (k_16 lqn_3
                        lqn_4
                        lqn_5
                        EREAD
                        EWRITE
                        lqn_4
                        BLOCK_BEGIN
                        BLOCK_END
                        UNCHECKED)
                  (k_17 lqn_3
                        lqn_4
                        lqn_5
                        EREAD
                        EWRITE
                        lqn_5
                        BLOCK_BEGIN
                        BLOCK_END
                        UNCHECKED)
                  (k_15 lqn_6
                        lqn_7
                        lqn_8
                        EREAD
                        EWRITE
                        lqn_6
                        BLOCK_BEGIN
                        BLOCK_END
                        UNCHECKED)
                  (k_16 lqn_6
                        lqn_7
                        lqn_8
                        EREAD
                        EWRITE
                        lqn_7
                        BLOCK_BEGIN
                        BLOCK_END
                        UNCHECKED)
                  (k_17 lqn_6
                        lqn_7
                        lqn_8
                        EREAD
                        EWRITE
                        lqn_8
                        BLOCK_BEGIN
                        BLOCK_END
                        UNCHECKED)
                  (k_13 EREAD
                        EWRITE
                        t__csolve_heapify__
                        BLOCK_BEGIN
                        BLOCK_END
                        UNCHECKED)
                  (= __cil_tmp11_main lqn_3)
                  (= __cil_tmp1_main lqn_3)
                  (= __cil_tmp2_main (ite (= __cil_tmp1_main 0) 1 0))
                  (= (select BLOCK_END __cil_tmp3_main)
                     (select BLOCK_END __cil_tmp13_main))
                  (= (select BLOCK_BEGIN __cil_tmp3_main)
                     (select BLOCK_BEGIN __cil_tmp13_main))
                  (= (select UNCHECKED __cil_tmp3_main)
                     (select UNCHECKED __cil_tmp13_main))
                  (= __cil_tmp3_main (+ __cil_tmp13_main 4))
                  (<= __cil_tmp13_main __cil_tmp3_main)
                  (= __cil_tmp4_main lqn_7)
                  (= __cil_tmp5_main __cil_tmp4_main)
                  (= __cil_tmp6_main (ite (= __cil_tmp5_main 1) 1 0))
                  (= (select BLOCK_END __cil_tmp7_main)
                     (select BLOCK_END __cil_tmp13_main))
                  (= (select BLOCK_BEGIN __cil_tmp7_main)
                     (select BLOCK_BEGIN __cil_tmp13_main))
                  (= (select UNCHECKED __cil_tmp7_main)
                     (select UNCHECKED __cil_tmp13_main))
                  (= __cil_tmp7_main (+ __cil_tmp13_main 8))
                  (<= __cil_tmp13_main __cil_tmp7_main)
                  (< VV (+ __cil_tmp7_main 1))
                  (<= __cil_tmp7_main VV)
                  (= (select UNCHECKED VV) (select UNCHECKED __cil_tmp7_main))
                  (= (select BLOCK_END VV) (select BLOCK_END __cil_tmp7_main))
                  (= (select BLOCK_BEGIN VV)
                     (select BLOCK_BEGIN __cil_tmp7_main))
                  true)))
    (=> a!2 false)))))
(assert (forall ((__cil_tmp5_main Int)
         (lqn_8 Int)
         (lqn_4 Int)
         (lqn_10 Int)
         (__cil_tmp8_main Int)
         (__cil_tmp12_main Int)
         (EWRITE Int)
         (__cil_tmp9_main Int)
         (VV Int)
         (EREAD Int)
         (__cil_tmp13_main Int)
         (__cil_tmp2_main Int)
         (__cil_tmp7_main Int)
         (lqn_7 Int)
         (__cil_tmp3_main Int)
         (__cil_tmp4_main Int)
         (lqn_3 Int)
         (__cil_tmp6_main Int)
         (__cil_tmp1_main Int)
         (__cil_tmp10_main Int)
         (lqn_5 Int)
         (__cil_tmp11_main Int)
         (lqn_6 Int)
         (lqn_11 Int)
         (t__csolve_heapify__ Int)
         (lqn_9 Int)
         (BLOCK_BEGIN (Array Int Int))
         (BLOCK_END (Array Int Int))
         (UNCHECKED (Array Int Int)))
  (let ((a!1 (and (not (not (= VV 0)))
                  (k_13 EREAD
                        EWRITE
                        __cil_tmp13_main
                        BLOCK_BEGIN
                        BLOCK_END
                        UNCHECKED)
                  (k_16 lqn_9
                        lqn_10
                        lqn_11
                        EREAD
                        EWRITE
                        lqn_10
                        BLOCK_BEGIN
                        BLOCK_END
                        UNCHECKED)
                  (k_17 lqn_9
                        lqn_10
                        lqn_11
                        EREAD
                        EWRITE
                        lqn_11
                        BLOCK_BEGIN
                        BLOCK_END
                        UNCHECKED)
                  (k_15 lqn_3
                        lqn_4
                        lqn_5
                        EREAD
                        EWRITE
                        lqn_3
                        BLOCK_BEGIN
                        BLOCK_END
                        UNCHECKED)
                  (k_16 lqn_3
                        lqn_4
                        lqn_5
                        EREAD
                        EWRITE
                        lqn_4
                        BLOCK_BEGIN
                        BLOCK_END
                        UNCHECKED)
                  (k_17 lqn_3
                        lqn_4
                        lqn_5
                        EREAD
                        EWRITE
                        lqn_5
                        BLOCK_BEGIN
                        BLOCK_END
                        UNCHECKED)
                  (k_15 lqn_6
                        lqn_7
                        lqn_8
                        EREAD
                        EWRITE
                        lqn_6
                        BLOCK_BEGIN
                        BLOCK_END
                        UNCHECKED)
                  (k_16 lqn_6
                        lqn_7
                        lqn_8
                        EREAD
                        EWRITE
                        lqn_7
                        BLOCK_BEGIN
                        BLOCK_END
                        UNCHECKED)
                  (k_17 lqn_6
                        lqn_7
                        lqn_8
                        EREAD
                        EWRITE
                        lqn_8
                        BLOCK_BEGIN
                        BLOCK_END
                        UNCHECKED)
                  (k_15 lqn_9
                        lqn_10
                        lqn_11
                        EREAD
                        EWRITE
                        lqn_9
                        BLOCK_BEGIN
                        BLOCK_END
                        UNCHECKED)
                  (k_13 EREAD
                        EWRITE
                        t__csolve_heapify__
                        BLOCK_BEGIN
                        BLOCK_END
                        UNCHECKED)
                  (= __cil_tmp10_main (ite (= __cil_tmp9_main 2) 1 0))
                  (= __cil_tmp11_main lqn_3)
                  (= __cil_tmp12_main lqn_11)
                  (= __cil_tmp1_main lqn_3)
                  (= __cil_tmp2_main (ite (= __cil_tmp1_main 0) 1 0))
                  (= (select BLOCK_END __cil_tmp3_main)
                     (select BLOCK_END __cil_tmp13_main))
                  (= (select BLOCK_BEGIN __cil_tmp3_main)
                     (select BLOCK_BEGIN __cil_tmp13_main))
                  (= (select UNCHECKED __cil_tmp3_main)
                     (select UNCHECKED __cil_tmp13_main))
                  (= __cil_tmp3_main (+ __cil_tmp13_main 4))
                  (<= __cil_tmp13_main __cil_tmp3_main)
                  (= __cil_tmp4_main lqn_7)
                  (= __cil_tmp5_main __cil_tmp4_main)
                  (= __cil_tmp6_main (ite (= __cil_tmp5_main 1) 1 0))
                  (= (select BLOCK_END __cil_tmp7_main)
                     (select BLOCK_END __cil_tmp13_main))
                  (= (select BLOCK_BEGIN __cil_tmp7_main)
                     (select BLOCK_BEGIN __cil_tmp13_main))
                  (= (select UNCHECKED __cil_tmp7_main)
                     (select UNCHECKED __cil_tmp13_main))
                  (= __cil_tmp7_main (+ __cil_tmp13_main 8))
                  (<= __cil_tmp13_main __cil_tmp7_main)
                  (= __cil_tmp8_main lqn_11)
                  (= __cil_tmp9_main __cil_tmp8_main)
                  (= VV __cil_tmp10_main)
                  true)))
    (=> a!1 false))))
(assert (forall ((VV Int)
         (A1_Ix_0 Int)
         (EREAD Int)
         (__cil_tmp13_main Int)
         (A1_Ix_8 Int)
         (A1_Ix_4 Int)
         (t__csolve_heapify__ Int)
         (EWRITE Int)
         (BLOCK_BEGIN (Array Int Int))
         (BLOCK_END (Array Int Int))
         (UNCHECKED (Array Int Int)))
  (=> (and (= VV VV)
           (= EWRITE EWRITE)
           (= EREAD EREAD)
           (= A1_Ix_8 A1_Ix_8)
           (= A1_Ix_4 A1_Ix_4)
           (= A1_Ix_0 A1_Ix_0)
           (= VV A1_Ix_8)
           false
           false
           false
           (k_13 EREAD
                 EWRITE
                 t__csolve_heapify__
                 BLOCK_BEGIN
                 BLOCK_END
                 UNCHECKED)
           (k_13 EREAD EWRITE __cil_tmp13_main BLOCK_BEGIN BLOCK_END UNCHECKED)
           true)
      (k_17 A1_Ix_0
            A1_Ix_4
            A1_Ix_8
            EREAD
            EWRITE
            VV
            BLOCK_BEGIN
            BLOCK_END
            UNCHECKED))))
(assert (forall ((VV Int)
         (A1_Ix_0 Int)
         (EREAD Int)
         (__cil_tmp13_main Int)
         (A1_Ix_8 Int)
         (A1_Ix_4 Int)
         (t__csolve_heapify__ Int)
         (EWRITE Int)
         (BLOCK_BEGIN (Array Int Int))
         (BLOCK_END (Array Int Int))
         (UNCHECKED (Array Int Int)))
  (=> (and (= VV VV)
           (= EWRITE EWRITE)
           (= EREAD EREAD)
           (= A1_Ix_8 A1_Ix_8)
           (= A1_Ix_4 A1_Ix_4)
           (= A1_Ix_0 A1_Ix_0)
           (= VV A1_Ix_4)
           false
           false
           false
           (k_13 EREAD
                 EWRITE
                 t__csolve_heapify__
                 BLOCK_BEGIN
                 BLOCK_END
                 UNCHECKED)
           (k_13 EREAD EWRITE __cil_tmp13_main BLOCK_BEGIN BLOCK_END UNCHECKED)
           true)
      (k_16 A1_Ix_0
            A1_Ix_4
            A1_Ix_8
            EREAD
            EWRITE
            VV
            BLOCK_BEGIN
            BLOCK_END
            UNCHECKED))))
(assert (forall ((VV Int)
         (A1_Ix_0 Int)
         (EREAD Int)
         (__cil_tmp13_main Int)
         (A1_Ix_8 Int)
         (A1_Ix_4 Int)
         (t__csolve_heapify__ Int)
         (EWRITE Int)
         (BLOCK_BEGIN (Array Int Int))
         (BLOCK_END (Array Int Int))
         (UNCHECKED (Array Int Int)))
  (=> (and (= VV VV)
           (= EWRITE EWRITE)
           (= EREAD EREAD)
           (= A1_Ix_8 A1_Ix_8)
           (= A1_Ix_4 A1_Ix_4)
           (= A1_Ix_0 A1_Ix_0)
           (= VV A1_Ix_0)
           false
           false
           false
           (k_13 EREAD
                 EWRITE
                 t__csolve_heapify__
                 BLOCK_BEGIN
                 BLOCK_END
                 UNCHECKED)
           (k_13 EREAD EWRITE __cil_tmp13_main BLOCK_BEGIN BLOCK_END UNCHECKED)
           true)
      (k_15 A1_Ix_0
            A1_Ix_4
            A1_Ix_8
            EREAD
            EWRITE
            VV
            BLOCK_BEGIN
            BLOCK_END
            UNCHECKED))))

(check-sat)
